NAME :  IRP
COMMENT : 
TYPE :  CVRP
DIMENSION : 	17
EDGE_WEIGHT_TYPE : 	EUC_2D
CAPACITY : 	729
NODE_COORD_SECTION
1	436	498
2	124	8
3	320	11
4	134	326
5	49	265
6	237	250
7	492	239
8	199	415
9	73	51
10	87	247
11	429	76
12	130	272
13	450	29
14	14	310
15	227	356
16	434	261
17	438	397
DEMAND_SECTION
1	0
2	20
3	152
4	140
5	166
6	46
7	156
8	48
9	261
10	273
11	69
12	81
13	210
14	66
15	135
16	147
17	153
DEPOT_SECTION
	1
	-1
EOF
